Version identifier: 12.10.0.0 | 2019-11-26 | 843d4de
CPXPARAM_WorkMem                                 16384
CPXPARAM_MIP_Limits_TreeMemory                   24576
Tried aggregator 2 times.
MIP Presolve eliminated 18 rows and 0 columns.
MIP Presolve added 36 rows and 0 columns.
Aggregator did 40 substitutions.
Reduced MIP has 80 rows, 70 columns, and 298 nonzeros.
Reduced MIP has 70 binaries, 0 generals, 0 SOSs, and 0 indicators.
Presolve time = 0,00 sec. (0,59 ticks)
Found incumbent of value 1177,000000 after 0,00 sec. (0,68 ticks)
Probing fixed 4 vars, tightened 0 bounds.
Probing time = 0,00 sec. (0,27 ticks)
Tried aggregator 1 time.
Detecting symmetries...
MIP Presolve eliminated 4 rows and 4 columns.
Reduced MIP has 76 rows, 66 columns, and 274 nonzeros.
Reduced MIP has 66 binaries, 0 generals, 0 SOSs, and 0 indicators.
Presolve time = 0,00 sec. (0,23 ticks)
Probing time = 0,00 sec. (0,23 ticks)
Clique table members: 253.
MIP emphasis: balance optimality and feasibility.
MIP search method: dynamic search.
Parallel mode: deterministic, using up to 16 threads.
Root relaxation solution time = 0,00 sec. (0,19 ticks)

        Nodes                                         Cuts/
   Node  Left     Objective  IInf  Best Integer    Best Bound    ItCnt     Gap

*     0+    0                         1177,0000      154,0000            86,92%
*     0+    0                         1081,0000      154,0000            85,75%
      0     0      718,0000    65     1081,0000      718,0000       38   33,58%
*     0+    0                         1071,0000      718,0000            32,96%
      0     0      842,1455    65     1071,0000     Cuts: 119       73   21,37%
*     0+    0                         1070,0000      842,1455            21,29%
      0     0      870,0715    65     1070,0000      Cuts: 94      104   18,68%
      0     0      871,0104    65     1070,0000      Cuts: 49      116   18,60%
      0     0      871,1454    65     1070,0000      Cuts: 23      122   18,58%
      0     0      871,1454    65     1070,0000  ZeroHalf: 14      123   18,58%
Detecting symmetries...
      0     0      871,1454    65     1070,0000   ZeroHalf: 7      124   18,58%
      0     0        cutoff           1070,0000     1070,0000      124    0,00%
Elapsed time = 0,03 sec. (14,06 ticks, tree = 0,01 MB, solutions = 4)

Clique cuts applied:  6
Cover cuts applied:  9
Implied bound cuts applied:  14
Mixed integer rounding cuts applied:  12
Zero-half cuts applied:  3
Lift and project cuts applied:  1
Gomory fractional cuts applied:  12

Root node processing (before b&c):
  Real time             =    0,03 sec. (14,07 ticks)
Parallel b&c, 16 threads:
  Real time             =    0,00 sec. (0,00 ticks)
  Sync time (average)   =    0,00 sec.
  Wait time (average)   =    0,00 sec.
                          ------------
Total (root+branch&cut) =    0,03 sec. (14,07 ticks)
